NAME : n20w180.004.201.tour
COMMENT : Length = 201
COMMENT : Found by LKH [Keld Helsgaun] Tue May  2 05:19:04 2017
TYPE : TOUR
DIMENSION : 21
TOUR_SECTION
1
19
11
4
18
9
14
20
3
8
12
5
21
2
15
16
10
17
7
13
6
-1
EOF
